; benchmark generated from python API
(set-info :status unknown)
(declare-datatypes ((RealState 0)) (((RMk1 (rval1 Real)) (RMk2 (rval2 Real)))))
 (assert
 (forall ((?x1 Real) )(exists ((?x2_st RealState) (val!496 Real) )(forall ((?x3 Real) )(exists ((?x4_st RealState) (val!497 Real) )(let ((?x73 (- 95.0)))
 (let ((?x12491 (rval2 ?x4_st)))
 (let ((?x17291 (* 66.0 ?x12491)))
 (let ((?x6006 (+ (+ (+ (* (- 74.0) ?x1) (* 31.0 (rval2 ?x2_st))) (* 83.0 ?x3)) ?x17291)))
 (let ((?x29967 (- 24.0)))
 (let ((?x11154 (* 12.0 ?x12491)))
 (let ((?x13113 (+ (+ (+ (* (- 96.0) ?x1) (* 59.0 (rval2 ?x2_st))) (* 55.0 ?x3)) ?x11154)))
 (let (($x3664 (and (or (not (= ?x13113 ?x29967)) (>= ?x6006 ?x73)) (>= (+ (* (- 70.0) ?x3) (* 11.0 ?x12491)) 0.0))))
 (let (($x411 (or (= (+ (* (- 73.0) ?x3) (* 51.0 ?x12491)) 50.0) (< (+ (* (- 2.0) ?x1) (* (- 74.0) ?x12491)) 0.0))))
 (let ((?x25463 (+ (+ (* 39.0 (rval2 ?x2_st)) (* (- 96.0) ?x3)) (* (- 55.0) ?x12491))))
 (let ((?x7553 (+ (+ (* (- 46.0) ?x1) (* 11.0 (rval2 ?x2_st))) (* (- 54.0) ?x3))))
 (let (($x7817 (or (or (>= (+ ?x7553 (* (- 28.0) ?x12491)) 37.0) (< ?x25463 0.0)) $x411)))
 (let ((?x12097 (- 86.0)))
 (let (($x30814 (< (+ (+ (* 79.0 ?x1) (* 1.0 (rval2 ?x2_st))) (* 53.0 ?x12491)) ?x12097)))
 (let (($x4825 (<= (+ (+ (* 77.0 ?x1) (* 46.0 ?x3)) (* (- 54.0) ?x12491)) 51.0)))
 (let ((?x5198 (- 32.0)))
 (let (($x9057 (>= (+ (+ (* 5.0 ?x1) (* (- 33.0) (rval2 ?x2_st))) (* 99.0 ?x12491)) ?x5198)))
 (let ((?x4953 (- 17.0)))
 (let ((?x7563 (+ (+ (+ (* 27.0 ?x1) (* ?x29967 (rval2 ?x2_st))) (* 89.0 ?x3)) (* (- 93.0) ?x12491))))
 (let (($x33967 (and (= (+ (* 44.0 ?x1) (* (- 41.0) ?x3)) 0.0) (< ?x7563 ?x4953))))
 (let ((?x8215 (- 8.0)))
 (let (($x13246 (>= (+ (+ (* 36.0 ?x1) (* 67.0 (rval2 ?x2_st))) (* 11.0 ?x3)) ?x8215)))
 (let ((?x5496 (- 45.0)))
 (let ((?x15626 (+ (+ (* (- 90.0) ?x1) (* 48.0 (rval2 ?x2_st))) (* (- 94.0) ?x3))))
 (let (($x19071 (= (+ (+ (* 11.0 ?x1) (* 75.0 (rval2 ?x2_st))) (* 6.0 ?x12491)) 57.0)))
 (let (($x4208 (and (and (not $x19071) (not (= (+ ?x15626 (* (- 48.0) ?x12491)) ?x5496))) (or $x13246 (>= (+ (* 75.0 ?x1) (* (- 65.0) ?x3)) 34.0)))))
 (let ((?x7523 (+ (+ (* 16.0 ?x1) (* (- 18.0) (rval2 ?x2_st))) (* (- 92.0) ?x3))))
 (let (($x3142 (or (> (+ (* (- 69.0) ?x3) (* ?x5496 ?x12491)) 0.0) (>= ?x7523 ?x5198))))
 (let (($x17343 (< (+ (+ (* ?x12097 ?x1) (* (- 83.0) ?x3)) (* 46.0 ?x12491)) 94.0)))
 (let ((?x4098 (- 6.0)))
 (let ((?x15430 (* 40.0 ?x3)))
 (let ((?x13813 (+ (+ (+ (* (- 19.0) ?x1) (* (- 74.0) (rval2 ?x2_st))) ?x15430) (* (- 73.0) ?x12491))))
 (let ((?x15548 (+ (+ (* 18.0 (rval2 ?x2_st)) (* (- 64.0) ?x3)) (* (- 87.0) ?x12491))))
 (let (($x2208 (< (+ (+ (* 57.0 ?x1) (* (- 41.0) ?x3)) (* (- 82.0) ?x12491)) 40.0)))
 (let ((?x3132 (+ (+ (* 7.0 ?x1) (* (- 79.0) (rval2 ?x2_st))) (* (- 100.0) ?x3))))
 (let ((?x5778 (+ (+ (+ (* 33.0 ?x1) (* 84.0 (rval2 ?x2_st))) (* (- 36.0) ?x3)) (* (- 77.0) ?x12491))))
 (let (($x19127 (or (and (= ?x5778 0.0) (> (+ ?x3132 (* (- 71.0) ?x12491)) 0.0)) (or $x2208 (>= ?x15548 16.0)))))
 (let (($x2202 (or (or $x19127 (and (or (not (= ?x13813 ?x4098)) $x17343) $x3142)) (or $x4208 (and (<= (* (- 7.0) ?x1) 0.0) $x33967)))))
 (let ((?x9469 (- 35.0)))
 (let ((?x15567 (* ?x9469 ?x12491)))
 (let ((?x10444 (+ (+ (+ (* 66.0 ?x1) (* 4.0 (rval2 ?x2_st))) (* 21.0 ?x3)) ?x15567)))
 (let (($x24928 (>= (+ (+ (* 82.0 (rval2 ?x2_st)) (* 69.0 ?x3)) (* 67.0 ?x12491)) 10.0)))
 (let ((?x6233 (+ (+ (+ (* 73.0 ?x1) (* (- 15.0) (rval2 ?x2_st))) (* 52.0 ?x3)) ?x11154)))
 (let (($x17505 (or (not (= ?x6233 72.0)) (<= (+ (* 66.0 ?x1) (* (- 89.0) ?x12491)) 47.0))))
 (let ((?x15286 (- 98.0)))
 (let ((?x7381 (+ (+ (+ (* 87.0 ?x1) (* (- 36.0) (rval2 ?x2_st))) (* 55.0 ?x3)) (* (- 99.0) ?x12491))))
 (let (($x12613 (= (+ (+ (* 13.0 (rval2 ?x2_st)) (* (- 7.0) ?x3)) (* 52.0 ?x12491)) 0.0)))
 (let ((?x133 (- 63.0)))
 (let (($x3109 (= (+ (+ (* 1.0 (rval2 ?x2_st)) (* 20.0 ?x3)) (* (- 42.0) ?x12491)) ?x133)))
 (let ((?x16605 (- 28.0)))
 (let ((?x1650 (+ (+ (* (- 4.0) ?x1) (* (- 22.0) ?x3)) (* (- 18.0) ?x12491))))
 (let (($x17262 (and (and (or (<= ?x1650 ?x16605) (not $x3109)) (and $x12613 (< ?x7381 ?x15286))) (or $x17505 (or $x24928 (= ?x10444 77.0))))))
 (let (($x16467 (and (< (+ (* (- 80.0) ?x1) (* (- 78.0) ?x12491)) 25.0) (> (+ (* (- 66.0) ?x1) (* (- 73.0) ?x3)) (- 19.0)))))
 (let (($x8583 (< (+ (+ (* 35.0 ?x1) (* (- 91.0) ?x3)) (* 41.0 ?x12491)) 0.0)))
 (let ((?x16343 (* 79.0 ?x12491)))
 (let ((?x8632 (+ (+ (+ (* 38.0 ?x1) (* (- 80.0) (rval2 ?x2_st))) (* 46.0 ?x3)) ?x16343)))
 (let ((?x5799 (- 42.0)))
 (let ((?x11235 (* ?x5799 ?x3)))
 (let ((?x5708 (+ (+ (+ (* (- 47.0) ?x1) (* 1.0 (rval2 ?x2_st))) ?x11235) (* ?x8215 ?x12491))))
 (let (($x6333 (or (and (or (< ?x5708 61.0) (and (not (= ?x8632 48.0)) $x8583)) $x16467) $x17262)))
 (let ((?x17339 (+ (+ (* 91.0 ?x1) (* (- 93.0) (rval2 ?x2_st))) (* (- 44.0) ?x12491))))
 (let (($x3005 (and (>= ?x17339 58.0) (<= (+ (* (- 68.0) (rval2 ?x2_st)) (* 88.0 ?x3)) 74.0))))
 (let ((?x3246 (- 18.0)))
 (let (($x17052 (= (+ (+ (* 61.0 ?x1) (* (- 26.0) ?x3)) (* 21.0 ?x12491)) ?x3246)))
 (let (($x11917 (<= (+ (+ (* 84.0 ?x1) (* 79.0 (rval2 ?x2_st))) (* 42.0 ?x3)) 5.0)))
 (let (($x5698 (and $x11917 (= (+ (* (- 58.0) (rval2 ?x2_st)) (* (- 13.0) ?x3)) (- 1.0)))))
 (let (($x3091 (or (< (+ (* ?x5799 (rval2 ?x2_st)) (* (- 88.0) ?x3)) 0.0) (= (+ (* 94.0 ?x1) (* (- 41.0) (rval2 ?x2_st))) 20.0))))
 (let (($x11171 (>= (+ (+ (* (- 91.0) ?x1) (* (- 61.0) ?x3)) (* 20.0 ?x12491)) 25.0)))
 (let (($x18552 (or (not (= (+ (* (- 27.0) ?x3) (* (- 64.0) ?x12491)) 12.0)) $x11171)))
 (let (($x15625 (or $x18552 (> (+ (+ (* 51.0 ?x1) (* 22.0 (rval2 ?x2_st))) ?x15567) (- 49.0)))))
 (let ((?x14134 (- 54.0)))
 (let (($x33854 (= (+ (+ (* 62.0 ?x1) (* 34.0 ?x3)) (* (- 94.0) ?x12491)) ?x14134)))
 (let ((?x16069 (* 77.0 ?x12491)))
 (let (($x29678 (< (+ (+ (* (- 53.0) (rval2 ?x2_st)) (* (- 56.0) ?x3)) ?x16069) 79.0)))
 (let (($x9182 (and (and (and $x29678 $x33854) $x15625) (or (and $x3091 $x5698) (or $x17052 $x3005)))))
 (let (($x9876 (or (and $x9182 $x6333) (and $x2202 (and (and $x9057 (and $x4825 $x30814)) (and $x7817 $x3664))))))
 (let (($x636 (not (= ?x4_st (RMk1 val!497)))))
 (let (($x12990 (not (= ?x2_st (RMk1 val!496)))))
 (and $x12990 $x636 $x9876))))))))))))))))))))))))))))))))))))))))))))))))))))))))))))))))))))))))))))))))
 )
 )
 )
 )
(check-sat)
